(set-logic ALL)
(declare-fun seed0_T_1 () Int)
(declare-fun seed0_T_2 () Bool)
(declare-fun seed0_var_0xINPUT_295747 () String)
(assert (and (or (>= seed0_T_1 (str.len seed0_var_0xINPUT_295747)) (not (> (mod seed0_T_1 seed0_T_1) (div seed0_T_1 seed0_T_1)))) (or (= seed0_T_2 (= seed0_T_1 0)) (and (str.< (str.++ seed0_var_0xINPUT_295747 "2nxfyrgTU3mWCc6Z5S9z") (str.++ seed0_var_0xINPUT_295747 "ajD3V0qPikNdu9IJ")) (str.contains (str.++ seed0_var_0xINPUT_295747 "noMbkeYUOKgh8Gu45a") (str.++ seed0_var_0xINPUT_295747 "ub1FsN4P")))) (or seed0_T_2 (and (distinct (* seed0_T_1 seed0_T_1) (+ seed0_T_1 (- 639))) (> (* seed0_T_1 seed0_T_1) (- seed0_T_1 (- 767)))))))
(check-sat)
(exit)